c SAT problem
p wcnf 215 1045
1 60 3150 0
1 -60 -3165 0
1 60 3135 0
1 90 -3090 0
1 -105 -106 0
1 -3120 -196 0
1 3120 -3121 0
1 -3120 181 0
1 -3120 120 0
1 -3135 3136 0
1 3135 135 0
1 -3135 -75 0
1 3135 3120 0
1 -3135 -120 0
1 3135 60 0
1 3150 -196 0
1 3150 105 0
1 3150 3151 0
1 -3150 151 0
1 -3150 121 0
1 -3150 -90 0
1 3150 3165 0
1 -3165 -196 0
1 -3165 166 0
1 -3165 3150 0
1 3165 -151 0
1 -3165 121 0
1 -120 -3105 0
1 120 3075 0
1 -120 -135 0
1 120 121 0
1 -135 -3075 0
1 -135 -3060 0
1 135 -120 0
1 -150 165 0
1 150 -3015 0
1 150 3090 0
1 150 -3030 0
1 150 -151 0
1 150 3135 0
1 -165 -166 0
1 -165 3090 0
1 165 -3060 0
1 -3060 -225 0
1 -3060 -195 0
1 3060 -135 0
1 -3060 -240 0
1 -3060 180 0
1 3060 -3061 0
1 3060 120 0
1 3075 225 0
1 3075 195 0
1 -3075 3076 0
1 -3075 -105 0
1 -3075 -255 0
1 3090 -165 0
1 -3090 120 0
1 3090 90 0
1 3105 -226 0
1 -3105 3106 0
1 3105 -196 0
1 180 -181 0
1 -180 3030 0
1 -180 3000 0
1 195 -3075 0
1 -195 -3045 0
1 -195 3015 0
1 195 180 0
1 -195 3060 0
1 210 3015 0
1 -210 3030 0
1 -3000 300 0
1 -3000 -210 0
1 -3000 150 0
1 -3000 3001 0
1 3015 -225 0
1 -3015 195 0
1 3015 -165 0
1 3015 -150 0
1 -3015 315 0
1 -3030 -225 0
1 -3030 -195 0
1 3030 240 0
1 3030 210 0
1 3030 315 0
1 -3030 285 0
1 -3045 -150 0
1 3045 -3030 0
1 3045 -285 0
1 -61 -76 0
1 61 3345 0
1 -61 -62 0
1 -76 -75 0
1 91 -3300 0
1 -91 106 0
1 91 -3345 0
1 -91 3285 0
1 91 -92 0
1 106 105 0
1 -106 107 0
1 -106 -3345 0
1 106 -3255 0
1 -3300 -3301 0
1 3300 121 0
1 3300 91 0
1 -3315 -166 0
1 3315 136 0
1 3315 76 0
1 -3315 3316 0
1 -3315 182 0
1 3315 151 0
1 -3315 91 0
1 3330 -197 0
1 -3330 3345 0
1 3330 -182 0
1 3330 -152 0
1 3345 -3330 0
1 -3345 -197 0
1 -3345 -3346 0
1 -3345 -182 0
1 121 3270 0
1 -121 3240 0
1 -121 -3150 0
1 -121 3285 0
1 -136 3300 0
1 -136 137 0
1 136 3315 0
1 -136 -3255 0
1 151 -166 0
1 -151 -3180 0
1 151 3315 0
1 151 3285 0
1 151 -3225 0
1 151 3165 0
1 -166 3255 0
1 -166 3270 0
1 166 -3180 0
1 166 151 0
1 166 3225 0
1 -166 3195 0
1 3240 -226 0
1 3240 -3241 0
1 3240 211 0
1 -3240 -181 0
1 -3240 -121 0
1 -3240 91 0
1 -3255 256 0
1 3255 166 0
1 -3255 3240 0
1 3255 -241 0
1 -3270 -256 0
1 -3270 227 0
1 -3270 -197 0
1 -3270 136 0
1 -3285 166 0
1 -3285 -241 0
1 3285 182 0
1 -3285 151 0
1 -3285 -121 0
1 3285 -91 0
1 -181 -3240 0
1 181 182 0
1 -181 -3225 0
1 -181 -3195 0
1 181 3165 0
1 -181 -3135 0
1 -196 3090 0
1 196 3255 0
1 -211 -226 0
1 211 3180 0
1 -211 3225 0
1 -211 3195 0
1 226 3136 0
1 -226 -3240 0
1 226 3121 0
1 226 211 0
1 226 -3255 0
1 226 3225 0
1 226 3195 0
1 -3180 -226 0
1 3180 3181 0
1 3180 -211 0
1 3180 3195 0
1 3180 316 0
1 3180 255 0
1 3195 -166 0
1 3195 181 0
1 -3210 -226 0
1 -3210 241 0
1 -3210 -211 0
1 -3210 181 0
1 -3210 316 0
1 -3210 286 0
1 3225 301 0
1 -3225 271 0
1 -3225 241 0
1 3225 181 0
1 -3225 316 0
1 -3225 -286 0
1 -240 -3136 0
1 240 3180 0
1 -240 -3151 0
1 240 -3121 0
1 240 -3060 0
1 240 -3030 0
1 240 -3195 0
1 -240 -3166 0
1 255 3136 0
1 255 -3045 0
1 -255 3151 0
1 -255 3166 0
1 -270 3180 0
1 270 -271 0
1 -270 3091 0
1 -270 -3030 0
1 270 -3166 0
1 -285 -3045 0
1 285 3180 0
1 285 -270 0
1 -285 3151 0
1 3121 3136 0
1 -3121 3120 0
1 -3121 -3122 0
1 -3121 -376 0
1 3121 345 0
1 -3136 3137 0
1 -3136 361 0
1 -3136 -270 0
1 3136 -211 0
1 3136 -345 0
1 -3136 -255 0
1 3151 3150 0
1 3151 -376 0
1 3151 -316 0
1 -3151 285 0
1 -3151 3166 0
1 -3151 -255 0
1 3166 -331 0
1 -3166 -3151 0
1 -3166 -211 0
1 -3166 376 0
1 -300 -3106 0
1 300 -3045 0
1 -300 3015 0
1 300 -3121 0
1 -300 3091 0
1 315 3106 0
1 315 -3076 0
1 -315 3045 0
1 -315 3015 0
1 315 -3091 0
1 315 3030 0
1 -315 -3000 0
1 330 3106 0
1 330 -3016 0
1 330 -331 0
1 330 3091 0
1 -345 3106 0
1 345 3076 0
1 -345 -3046 0
1 345 3091 0
1 -345 -3061 0
1 -345 -3001 0
1 3061 -435 0
1 -3061 -3062 0
1 3061 315 0
1 -3061 285 0
1 3076 3075 0
1 -3076 420 0
1 -3076 3077 0
1 -3076 360 0
1 3076 -270 0
1 -3076 435 0
1 -3076 -405 0
1 3076 -3061 0
1 -3076 -375 0
1 -3076 -345 0
1 3091 3106 0
1 -3091 420 0
1 3091 -330 0
1 -3091 -300 0
1 3091 270 0
1 3091 435 0
1 3106 3105 0
1 -3106 -391 0
1 3106 361 0
1 -3106 -270 0
1 3106 -3091 0
1 3106 -406 0
1 3106 -345 0
1 -360 3076 0
1 -360 -3016 0
1 -360 -361 0
1 360 -375 0
1 -375 3076 0
1 375 -3046 0
1 390 -405 0
1 -405 390 0
1 -405 -3046 0
1 -405 3016 0
1 405 3031 0
1 -3001 480 0
1 3001 390 0
1 -3001 495 0
1 3001 405 0
1 -3016 -480 0
1 -3016 360 0
1 3016 -405 0
1 -3016 375 0
1 -3016 -345 0
1 -3031 480 0
1 -3031 450 0
1 3031 495 0
1 3031 435 0
1 -3031 405 0
1 3046 -480 0
1 3046 -3045 0
1 -3046 -390 0
1 3046 -3047 0
1 3046 -360 0
1 3046 -465 0
1 -3046 -405 0
1 3046 345 0
1 62 -3525 0
1 -62 77 0
1 -62 -61 0
1 -77 -3495 0
1 -77 3480 0
1 92 -3495 0
1 -92 -3465 0
1 -92 -91 0
1 -92 -3420 0
1 107 3525 0
1 -107 -3495 0
1 -107 3450 0
1 3480 -137 0
1 -3480 3481 0
1 -3480 -122 0
1 -3495 3496 0
1 -3495 122 0
1 -3495 -92 0
1 -3495 -62 0
1 3510 -107 0
1 3510 62 0
1 3525 107 0
1 -3525 -92 0
1 -3525 -62 0
1 122 -3330 0
1 -122 -3435 0
1 -122 -121 0
1 -137 -3495 0
1 -137 3465 0
1 137 -3450 0
1 -137 3480 0
1 152 -3360 0
1 -152 3330 0
1 -152 -167 0
1 152 3435 0
1 -152 -3345 0
1 -152 151 0
1 152 3420 0
1 -167 3435 0
1 167 -3405 0
1 -167 -3345 0
1 167 -3450 0
1 167 3390 0
1 -3420 -227 0
1 3420 -3435 0
1 3420 182 0
1 -3435 -167 0
1 3435 137 0
1 3435 3436 0
1 3435 212 0
1 -3435 122 0
1 3435 -92 0
1 -3450 -3465 0
1 -3450 -242 0
1 -3450 -122 0
1 -3450 92 0
1 3465 -257 0
1 -3465 167 0
1 -3465 -137 0
1 -3465 242 0
1 3465 -122 0
1 -3465 -92 0
1 -182 3360 0
1 -182 -3330 0
1 182 -3300 0
1 -182 3315 0
1 -182 3420 0
1 -182 -3390 0
1 -197 -3300 0
1 197 3375 0
1 197 3345 0
1 197 3315 0
1 -197 3285 0
1 -197 -182 0
1 -197 3420 0
1 -197 -3390 0
1 212 -3360 0
1 -212 -227 0
1 -212 3270 0
1 -212 -3405 0
1 -212 3285 0
1 212 3420 0
1 227 -226 0
1 227 -3435 0
1 227 -3405 0
1 227 3285 0
1 -227 3390 0
1 3360 -227 0
1 -3360 167 0
1 -3360 302 0
1 3360 241 0
1 3360 -212 0
1 -3360 -182 0
1 3360 -317 0
1 -3360 286 0
1 3375 3360 0
1 3375 -167 0
1 -3375 -302 0
1 -3375 -271 0
1 -3375 -3376 0
1 3375 241 0
1 3375 -212 0
1 3375 182 0
1 -3375 -152 0
1 -3390 227 0
1 3390 -3391 0
1 3390 167 0
1 -3390 3405 0
1 3390 -242 0
1 -3390 152 0
1 3390 -287 0
1 3405 -227 0
1 3405 -197 0
1 3405 302 0
1 3405 182 0
1 -3405 287 0
1 -241 3301 0
1 241 -3210 0
1 -241 -3375 0
1 241 -240 0
1 -241 242 0
1 -241 3285 0
1 256 -257 0
1 -256 3331 0
1 256 -3301 0
1 -256 3270 0
1 -256 3240 0
1 256 -3210 0
1 256 -241 0
1 256 -3346 0
1 -256 -3316 0
1 256 -3285 0
1 256 -3255 0
1 -256 3225 0
1 271 -3331 0
1 271 -3271 0
1 271 270 0
1 -271 3316 0
1 271 -3286 0
1 271 -3225 0
1 271 -286 0
1 -286 -3360 0
1 286 -3331 0
1 -286 -3241 0
1 286 -3316 0
1 -286 3225 0
1 286 285 0
1 286 -287 0
1 -3301 -3300 0
1 3301 -3302 0
1 -3301 -301 0
1 3301 -271 0
1 3301 -3316 0
1 3301 -346 0
1 -3301 286 0
1 3316 -256 0
1 -3316 -331 0
1 3316 -301 0
1 -3316 -212 0
1 -3316 -346 0
1 3316 316 0
1 -3331 -256 0
1 3331 -302 0
1 -3331 -271 0
1 3331 -212 0
1 -3331 377 0
1 -3331 347 0
1 -3331 -317 0
1 -3346 -362 0
1 -3346 271 0
1 -3346 -241 0
1 -3346 377 0
1 -3346 -347 0
1 -301 -3271 0
1 301 -3210 0
1 -301 3151 0
1 301 3316 0
1 -301 -3286 0
1 -301 3256 0
1 316 3271 0
1 -316 -3241 0
1 -316 -3180 0
1 316 3151 0
1 -316 3316 0
1 -316 -3256 0
1 316 317 0
1 331 -3241 0
1 -331 -330 0
1 -331 -3211 0
1 331 -332 0
1 331 3181 0
1 -331 3151 0
1 331 3316 0
1 331 3286 0
1 331 -3256 0
1 -331 -346 0
1 331 3166 0
1 346 3301 0
1 -346 331 0
1 346 3181 0
1 346 3151 0
1 346 3316 0
1 -346 3226 0
1 -346 347 0
1 -346 3196 0
1 -3241 -3256 0
1 3241 -3240 0
1 3241 3242 0
1 3241 436 0
1 -3241 376 0
1 3241 -286 0
1 3256 -331 0
1 3256 436 0
1 3256 316 0
1 -3271 -3272 0
1 -3271 -271 0
1 3271 -436 0
1 -3271 -3286 0
1 3271 -407 0
1 -3271 -346 0
1 3286 3287 0
1 -3286 -3271 0
1 3286 -362 0
1 3286 -331 0
1 3286 301 0
1 3286 -271 0
1 3286 3285 0
1 -3286 346 0
1 361 360 0
1 361 3241 0
1 361 3181 0
1 361 3091 0
1 -361 376 0
1 361 3226 0
1 -361 3196 0
1 376 3241 0
1 376 -3211 0
1 376 -3181 0
1 -376 -375 0
1 -376 -3256 0
1 -376 -3226 0
1 -376 3196 0
1 376 -3166 0
1 391 3106 0
1 -391 406 0
1 -391 3256 0
1 -391 3226 0
1 -406 -3137 0
1 406 -391 0
1 406 -3241 0
1 406 -3152 0
1 406 3091 0
1 406 3256 0
1 -3181 -481 0
1 -3181 420 0
1 3181 -331 0
1 -3181 3180 0
1 3181 3182 0
1 -3181 435 0
1 3181 406 0
1 3181 -376 0
1 3196 391 0
1 3196 -465 0
1 -3196 435 0
1 -3196 -406 0
1 3196 -346 0
1 -3211 -421 0
1 3211 391 0
1 -3211 3226 0
1 3211 3210 0
1 -3211 3212 0
1 -3211 496 0
1 3211 -376 0
1 3226 -361 0
1 -3226 -331 0
1 3226 -3211 0
1 3226 436 0
1 -3226 -406 0
1 -3226 3225 0
1 3226 346 0
1 -3226 3227 0
1 420 -3137 0
1 420 -3076 0
1 -420 -3046 0
1 420 -3181 0
1 -420 3122 0
1 420 3031 0
1 420 3196 0
1 420 -3167 0
1 -435 3106 0
1 -435 -3046 0
1 -435 -3152 0
1 435 3091 0
1 -450 3137 0
1 450 -3152 0
1 465 3137 0
1 465 3107 0
1 -465 3077 0
1 465 466 0
1 465 3122 0
1 465 -3092 0
1 -465 3167 0
1 3122 -3137 0
1 -3122 525 0
1 3122 -3121 0
1 -3122 -510 0
1 3137 -3136 0
1 -3137 450 0
1 3137 420 0
1 3137 -391 0
1 -3137 -556 0
1 3137 495 0
1 3152 -450 0
1 3152 -391 0
1 3152 556 0
1 -3152 -526 0
1 3152 -496 0
1 3152 -435 0
1 3152 -406 0
1 3152 511 0
1 -3167 -556 0
1 -3167 496 0
1 3167 465 0
1 3167 3152 0
1 -3167 -435 0
1 3167 406 0
1 -3167 -541 0
1 -480 -481 0
1 480 3046 0
1 -480 -3122 0
1 -480 -3001 0
1 -495 -3016 0
1 -495 3001 0
1 -510 3107 0
1 -510 -3077 0
1 510 3122 0
1 510 -3062 0
1 -525 -526 0
1 525 -3122 0
1 -525 3002 0
1 -525 510 0
1 -3062 -450 0
1 -3062 -3077 0
1 -3062 -585 0
1 3062 -555 0
1 3062 525 0
1 3062 540 0
1 3062 510 0
1 -3077 -480 0
1 3077 3076 0
1 3077 -585 0
1 3077 -465 0
1 3092 480 0
1 3092 -3107 0
1 3092 556 0
1 -3092 -495 0
1 -3092 -541 0
1 3107 -480 0
1 3107 -586 0
1 3107 -556 0
1 3107 541 0
1 -3107 -510 0
1 540 3047 0
1 540 555 0
1 -555 -540 0
1 -570 -3077 0
1 570 -3032 0
1 -585 -3002 0
1 -585 3077 0
1 -585 570 0
1 3002 585 0
1 -3002 -3001 0
1 3002 -540 0
1 3002 -510 0
1 -3017 3002 0
1 3017 585 0
1 -3017 555 0
1 3017 -525 0
1 -3032 3047 0
1 3032 -585 0
1 3032 -555 0
1 -3032 540 0
1 -3032 -510 0
1 -3047 -555 0
1 3047 -3032 0
1 242 3526 0
1 242 -3465 0
1 242 3390 0
1 257 256 0
1 257 3435 0
1 257 3450 0
1 272 -3496 0
1 272 -3436 0
1 -272 -3405 0
1 272 -3451 0
1 287 3526 0
1 -287 -3405 0
1 -287 -3481 0
1 -287 -3421 0
1 287 3390 0
1 287 -286 0
1 -3481 257 0
1 -3481 -3496 0
1 -3481 272 0
1 -3481 -242 0
1 -3496 257 0
1 3496 332 0
1 -3496 -302 0
1 -3511 3526 0
1 3511 272 0
1 3511 242 0
1 -3526 -3527 0
1 3526 272 0
1 3526 -242 0
1 3526 -287 0
1 -302 3360 0
1 -302 -3331 0
1 -302 3436 0
1 -302 3375 0
1 -302 -317 0
1 -302 -3390 0
1 317 -3390 0
1 -317 -3496 0
1 -317 -3436 0
1 317 -3405 0
1 317 3346 0
1 -317 -3481 0
1 -317 3421 0
1 332 3361 0
1 -332 3451 0
1 -332 -3481 0
1 332 -3421 0
1 347 3331 0
1 347 3496 0
1 -347 -3481 0
1 -347 3451 0
1 -347 -3421 0
1 347 3391 0
1 -3421 -422 0
1 -3421 377 0
1 3421 -3420 0
1 3421 -3422 0
1 -3436 -422 0
1 3436 3435 0
1 -3436 -3437 0
1 3436 302 0
1 -3436 437 0
1 -3436 -407 0
1 -3436 -317 0
1 3436 287 0
1 -3451 -302 0
1 3451 272 0
1 3451 437 0
1 3451 347 0
1 -3451 3452 0
1 3451 -317 0
1 -3466 347 0
1 -3466 -317 0
1 362 -3331 0
1 362 3301 0
1 -362 3271 0
1 -362 -3286 0
1 -362 377 0
1 -377 -3436 0
1 -377 3286 0
1 -377 3421 0
1 -377 3391 0
1 392 -391 0
1 392 407 0
1 -392 3391 0
1 407 -3361 0
1 -407 -3332 0
1 -407 3271 0
1 -407 -3376 0
1 407 3286 0
1 -407 -3391 0
1 3361 3360 0
1 -3361 482 0
1 -3361 3362 0
1 3361 362 0
1 -3361 -3376 0
1 -3361 -347 0
1 3376 482 0
1 -3376 -451 0
1 -3376 3375 0
1 -3376 -497 0
1 -3376 -3377 0
1 -3376 -436 0
1 3376 347 0
1 3391 452 0
1 -3391 -467 0
1 3391 407 0
1 -3391 -347 0
1 3391 -3390 0
1 3406 482 0
1 3406 452 0
1 3406 362 0
1 3406 332 0
1 3406 -3405 0
1 3406 3407 0
1 -3406 497 0
1 3406 -437 0
1 -3406 347 0
1 3406 3391 0
1 -421 -3361 0
1 -421 420 0
1 421 422 0
1 421 3241 0
1 421 -3211 0
1 421 -3256 0
1 421 3226 0
1 436 -3361 0
1 -436 -3332 0
1 -436 -421 0
1 436 3302 0
1 -436 3211 0
1 436 -435 0
1 436 3317 0
1 -436 -3256 0
1 -436 3226 0
1 -451 452 0
1 451 3272 0
1 451 3376 0
1 -451 3317 0
1 -451 -3257 0
1 -451 -3226 0
1 -466 3242 0
1 466 -3376 0
1 -466 467 0
1 466 3347 0
1 -3302 -481 0
1 -3302 -421 0
1 -3302 3301 0
1 3302 526 0
1 -3317 421 0
1 -3317 -557 0
1 3317 -526 0
1 -3317 -466 0
1 3317 3316 0
1 3317 -407 0
1 -3332 -451 0
1 -3332 -421 0
1 3332 -392 0
1 3332 557 0
1 -3332 527 0
1 3332 466 0
1 -3332 3347 0
1 -3332 -407 0
1 3347 451 0
1 3347 421 0
1 3347 392 0
1 3347 527 0
1 -3347 436 0
1 -3347 407 0
1 -481 -480 0
1 -481 3272 0
1 481 3211 0
1 -481 -3181 0
1 -481 -3152 0
1 481 -3317 0
1 -481 3167 0
1 496 3302 0
1 496 -3272 0
1 496 -3242 0
1 496 -3211 0
1 -496 -3181 0
1 -496 3152 0
1 -496 -497 0
1 -496 -3257 0
1 -496 -3196 0
1 496 -3167 0
1 511 -512 0
1 511 3272 0
1 511 3212 0
1 -511 3152 0
1 -511 3317 0
1 511 3257 0
1 526 -3302 0
1 526 3272 0
1 -526 -3182 0
1 3242 -481 0
1 -3242 -451 0
1 3242 -466 0
1 -3242 571 0
1 -3242 -541 0
1 -3257 -3242 0
1 -3257 556 0
1 -3257 526 0
1 3257 -496 0
1 3257 -3256 0
1 3257 511 0
1 -3272 -3271 0
1 -3272 -587 0
1 3272 -526 0
1 -3272 -496 0
1 -3272 -3287 0
1 -3287 3272 0
1 -3287 -496 0
1 -3287 -511 0
1 541 -3137 0
1 541 3242 0
1 -541 3182 0
1 -541 3152 0
1 -541 3257 0
1 541 -3197 0
1 541 -3167 0
1 -556 -3107 0
1 -556 -3212 0
1 556 557 0
1 -556 3092 0
1 -556 3197 0
1 556 -3257 0
1 556 3227 0
1 -556 -3167 0
1 -571 3182 0
1 -586 3242 0
1 586 3257 0
1 -586 -3197 0
1 -3182 586 0
1 3182 3197 0
1 3182 -571 0
1 -3197 526 0
1 -3197 3182 0
1 3197 571 0
1 -3197 -541 0
1 3212 -3227 0
1 -3212 -541 0
1 3227 -526 0
1 -3227 541 0
1 -3227 -511 0
1 422 -421 0
1 422 -3497 0
1 -422 3466 0
1 422 3482 0
1 422 -3451 0
1 422 3421 0
1 422 -3391 0
1 -437 -3497 0
1 437 3466 0
1 -437 3406 0
1 -437 -436 0
1 437 3451 0
1 452 3527 0
1 -452 3467 0
1 -452 -467 0
1 -452 3512 0
1 452 3482 0
1 452 3391 0
1 -467 -3512 0
1 -467 3482 0
1 3482 482 0
1 3482 422 0
1 3482 3497 0
1 3482 -527 0
1 -3482 -3481 0
1 3497 512 0
1 -3497 -452 0
1 -3497 3496 0
1 -3497 437 0
1 3512 3527 0
1 3512 437 0
1 3512 -3511 0
1 -3527 3526 0
1 -3527 -437 0
1 -482 -3361 0
1 -482 -3332 0
1 -482 -3467 0
1 482 -3437 0
1 482 -3406 0
1 -482 -3347 0
1 -482 3422 0
1 -497 -3376 0
1 497 3452 0
1 497 3422 0
1 -512 3497 0
1 512 3467 0
1 -512 527 0
1 -512 3407 0
1 -512 -3347 0
1 512 -3422 0
1 527 3362 0
1 527 -3332 0
1 527 526 0
1 -527 3377 0
1 -527 -3482 0
1 -3422 512 0
1 3422 587 0
1 -3422 497 0
1 3422 467 0
1 3437 452 0
1 -3437 -587 0
1 3437 3436 0
1 3437 557 0
1 -3437 -572 0
1 3452 -452 0
1 3452 3467 0
1 3452 -497 0
1 3452 467 0
1 3467 3466 0
1 3467 -497 0
1 557 -3332 0
1 557 3302 0
1 -557 3272 0
1 -557 -3437 0
1 -557 -3407 0
1 572 -3392 0
1 572 3272 0
1 572 587 0
1 -572 3407 0
1 572 3377 0
1 572 3422 0
1 -587 3362 0
1 587 -3437 0
1 587 3287 0
1 3362 512 0
1 -3362 527 0
1 3377 3362 0
1 -3377 -557 0
1 -3377 527 0
1 3392 -587 0
1 3407 -3392 0
1 -3407 557 0
